50

98 24 201
98 24 308
96 29 206
95 20 346
94 14 224
93 20 404
92 8 194
91 24 324
89 24 346
88 19 370
88 2 306
88 1 172
86 24 376
83 4 413
83 24 250
82 23 403
80 2 267
79 9 198
78 14 311
76 18 242
76 5 442
75 12 441
73 12 176
67 12 236
63 7 446
63 2 352
62 19 430
55 8 278
54 15 294
53 5 406
52 4 399
51 10 450
51 11 387
51 13 202
47 14 215
45 1 275
45 2 377
42 2 204
42 6 171
40 5 392
37 4 302
37 4 220
36 6 232
36 9 449
29 8 361
29 4 419
25 8 413
24 5 271
20 4 412
20 3 398
